NAME : CMT13
COMMENT : 1541.14
TYPE : CVRP
DIMENSION : 121
EDGE_WEIGHT_TYPE : EUC_2D
CAPACITY : 200
DISTANCE : 720.00000
SERVICE_TIME : 50
NODE_COORD_SECTION
1 10.00000 45.00000
2 25.00000 1.00000
3 25.00000 3.00000
4 31.00000 5.00000
5 32.00000 5.00000
6 31.00000 7.00000
7 32.00000 9.00000
8 34.00000 9.00000
9 46.00000 9.00000
10 35.00000 7.00000
11 34.00000 6.00000
12 35.00000 5.00000
13 47.00000 6.00000
14 40.00000 5.00000
15 39.00000 3.00000
16 36.00000 3.00000
17 73.00000 6.00000
18 73.00000 8.00000
19 24.00000 36.00000
20 76.00000 6.00000
21 76.00000 10.00000
22 76.00000 13.00000
23 78.00000 3.00000
24 78.00000 9.00000
25 79.00000 3.00000
26 79.00000 5.00000
27 79.00000 11.00000
28 82.00000 3.00000
29 82.00000 7.00000
30 90.00000 15.00000
31 84.00000 3.00000
32 84.00000 5.00000
33 84.00000 9.00000
34 85.00000 1.00000
35 87.00000 5.00000
36 85.00000 8.00000
37 87.00000 7.00000
38 86.00000 41.00000
39 86.00000 44.00000
40 86.00000 46.00000
41 85.00000 55.00000
42 89.00000 43.00000
43 89.00000 46.00000
44 89.00000 52.00000
45 92.00000 42.00000
46 92.00000 52.00000
47 94.00000 42.00000
48 94.00000 44.00000
49 94.00000 48.00000
50 96.00000 42.00000
51 99.00000 46.00000
52 99.00000 50.00000
53 83.00000 80.00000
54 83.00000 83.00000
55 85.00000 81.00000
56 85.00000 85.00000
57 85.00000 89.00000
58 87.00000 80.00000
59 87.00000 86.00000
60 90.00000 77.00000
61 90.00000 88.00000
62 93.00000 82.00000
63 93.00000 84.00000
64 93.00000 89.00000
65 94.00000 86.00000
66 95.00000 80.00000
67 99.00000 89.00000
68 37.00000 83.00000
69 50.00000 80.00000
70 35.00000 85.00000
71 35.00000 87.00000
72 44.00000 86.00000
73 46.00000 89.00000
74 46.00000 83.00000
75 46.00000 87.00000
76 46.00000 89.00000
77 48.00000 83.00000
78 50.00000 85.00000
79 50.00000 88.00000
80 54.00000 86.00000
81 54.00000 90.00000
82 10.00000 35.00000
83 10.00000 40.00000
84 18.00000 30.00000
85 17.00000 35.00000
86 16.00000 38.00000
87 14.00000 40.00000
88 15.00000 42.00000
89 11.00000 42.00000
90 18.00000 40.00000
91 21.00000 39.00000
92 20.00000 40.00000
93 18.00000 41.00000
94 20.00000 44.00000
95 22.00000 44.00000
96 16.00000 45.00000
97 20.00000 45.00000
98 25.00000 45.00000
99 30.00000 55.00000
100 20.00000 50.00000
101 22.00000 51.00000
102 18.00000 49.00000
103 16.00000 48.00000
104 20.00000 55.00000
105 18.00000 53.00000
106 14.00000 50.00000
107 15.00000 51.00000
108 16.00000 54.00000
109 28.00000 33.00000
110 33.00000 38.00000
111 30.00000 50.00000
112 13.00000 40.00000
113 15.00000 36.00000
114 18.00000 31.00000
115 25.00000 37.00000
116 30.00000 46.00000
117 25.00000 52.00000
118 16.00000 33.00000
119 25.00000 35.00000
120 5.00000 40.00000
121 5.00000 50.00000
DEMAND_SECTION
1 0
2 25
3 7
4 13
5 6
6 14
7 5
8 11
9 19
10 5
11 15
12 15
13 17
14 13
15 12
16 18
17 13
18 18
19 12
20 17
21 4
22 7
23 12
24 13
25 8
26 16
27 15
28 6
29 5
30 9
31 11
32 10
33 3
34 7
35 2
36 4
37 4
38 18
39 14
40 12
41 17
42 20
43 14
44 16
45 10
46 9
47 11
48 7
49 13
50 5
51 4
52 21
53 13
54 11
55 12
56 14
57 10
58 8
59 16
60 19
61 5
62 17
63 7
64 16
65 14
66 17
67 13
68 17
69 13
70 14
71 16
72 7
73 13
74 9
75 11
76 35
77 5
78 28
79 7
80 3
81 10
82 7
83 12
84 11
85 10
86 8
87 11
88 21
89 4
90 15
91 16
92 4
93 16
94 7
95 10
96 9
97 11
98 17
99 12
100 11
101 7
102 9
103 11
104 12
105 7
106 8
107 6
108 5
109 12
110 13
111 7
112 7
113 8
114 11
115 13
116 11
117 10
118 7
119 4
120 20
121 13
DEPOT_SECTION
1
-1
EOF
